instances/knapsack/knapsack_general/knapsack_40_10_5.kp
42
40
3578

686 69.0 786 151.1
379 38.0 479 81.45
599 60.0 699 121.08
471 47.0 571 79.1
937 94.0 1037 110.98
821 82.0 921 164.66
822 82.0 922 100.06
309 31.0 409 67.79
419 42.0 519 65.76
294 29.0 394 46.27
132 13.0 232 32.24
834 83.0 934 150.78
676 68.0 776 78.61
46 5.0 146 20.39
838 84.0 938 130.22
364 36.0 464 68.11
532 53.0 632 76.76
51 5.0 151 17.74
429 43.0 529 104.66
611 61.0 711 103.43
994 99.0 1094 138.28
676 68.0 776 140.07
446 45.0 546 89.9
692 69.0 792 108.51
619 62.0 719 81.76
600 60.0 700 107.7
743 74.0 843 96.69
539 54.0 639 97.33
419 42.0 519 94.43
284 28.0 384 56.92
423 42.0 523 80.39
677 68.0 777 101.13
316 32.0 416 64.21
859 86.0 959 125.83
323 32.0 423 51.21
555 56.0 655 69.09
840 84.0 940 160.44
647 65.0 747 95.89
89 9.0 189 29.29
482 48.0 582 71.53

42
[10348, 6098, 6091, 10696, 972, 9116, 966, 8887, 10992, 10151]

[[169, 247, 251, 25, 62, 224, 141, 186, 239, 159, 172, 86, 47, 93, 103, 197, 69, 69, 252, 16, 108, 90, 23, 51, 243, 2, 48, 254, 88, 84, 169, 5, 49, 246, 194, 58, 165, 8, 106, 245] [116, 70, 54, 41, 24, 98, 106, 114, 142, 94, 106, 31, 2, 135, 129, 125, 122, 71, 62, 34, 46, 42, 19, 40, 7, 69, 65, 89, 92, 74, 29, 96, 53, 83, 38, 92, 27, 148, 15, 72] [71, 1, 74, 5, 125, 74, 125, 127, 141, 82, 137, 80, 8, 47, 140, 58, 2, 5, 5, 141, 125, 50, 70, 79, 28, 143, 108, 98, 42, 58, 95, 74, 150, 69, 143, 127, 16, 113, 94, 120] [235, 176, 132, 176, 262, 116, 33, 188, 136, 65, 115, 219, 34, 199, 258, 219, 142, 151, 236, 170, 5, 186, 169, 120, 126, 183, 229, 79, 229, 162, 257, 182, 115, 178, 33, 248, 6, 164, 201, 64] [17, 8, 2, 4, 3, 14, 16, 22, 10, 5, 6, 7, 8, 19, 9, 4, 5, 23, 13, 12, 3, 2, 5, 14, 0, 13, 20, 11, 7, 4, 5, 12, 12, 10, 13, 22, 8, 15, 13, 5] [15, 144, 72, 139, 156, 114, 105, 157, 39, 69, 175, 159, 221, 101, 69, 57, 139, 50, 92, 133, 42, 42, 195, 100, 15, 193, 49, 118, 89, 24, 167, 4, 182, 49, 92, 21, 188, 80, 102, 165] [0, 13, 2, 15, 14, 23, 12, 13, 6, 5, 14, 16, 7, 13, 22, 11, 4, 13, 17, 18, 21, 10, 3, 16, 11, 5, 22, 20, 9, 1, 23, 22, 3, 3, 9, 23, 8, 13, 20, 8] [20, 12, 136, 188, 142, 85, 141, 148, 50, 76, 56, 127, 30, 192, 152, 68, 199, 48, 27, 70, 202, 33, 124, 199, 220, 61, 169, 1, 98, 36, 0, 53, 197, 39, 139, 87, 12, 115, 96, 199] [216, 16, 113, 267, 82, 88, 172, 79, 28, 10, 158, 32, 189, 203, 88, 24, 133, 188, 153, 187, 95, 131, 1, 249, 124, 186, 71, 34, 218, 34, 20, 143, 95, 64, 225, 94, 48, 95, 72, 96] [59, 240, 39, 80, 133, 111, 160, 203, 31, 251, 159, 23, 172, 149, 93, 244, 162, 194, 209, 125, 237, 210, 162, 22, 185, 36, 113, 242, 41, 158, 230, 60, 139, 204, 209, 149, 38, 197, 97, 12]]

[[506, 959, 379, 587, 173, 769, 170, 17, 831, 970, 640, 470, 232, 210, 306, 336, 24, 551, 761, 847, 198, 896, 634, 864, 719, 132, 91, 271, 983, 944, 227, 401, 240, 919, 351, 263, 700, 755, 645, 726] [112, 454, 300, 199, 450, 272, 435, 436, 404, 770, 234, 297, 173, 538, 684, 748, 533, 295, 522, 467, 276, 823, 915, 555, 348, 115, 500, 554, 413, 919, 845, 60, 381, 510, 248, 458, 1, 331, 798, 922] [349, 670, 654, 274, 832, 488, 141, 216, 82, 233, 91, 693, 219, 745, 381, 695, 107, 62, 724, 950, 425, 15, 125, 903, 498, 555, 382, 550, 466, 895, 310, 472, 331, 790, 194, 646, 351, 674, 352, 733] [936, 925, 729, 721, 787, 487, 872, 639, 797, 592, 62, 20, 750, 824, 720, 686, 6, 245, 879, 437, 452, 598, 304, 966, 861, 50, 329, 277, 541, 430, 849, 191, 550, 101, 301, 797, 10, 265, 883, 524] [286, 428, 10, 597, 248, 278, 929, 690, 370, 792, 160, 55, 579, 344, 546, 530, 603, 565, 416, 825, 274, 253, 705, 745, 970, 313, 674, 704, 779, 333, 19, 410, 795, 972, 814, 40, 783, 89, 964, 616] [703, 664, 776, 556, 194, 490, 71, 786, 468, 155, 565, 111, 469, 35, 639, 465, 477, 192, 270, 872, 691, 449, 15, 305, 764, 589, 896, 488, 628, 817, 896, 210, 77, 744, 132, 72, 633, 268, 122, 479] [844, 498, 176, 131, 542, 884, 383, 832, 384, 470, 638, 141, 305, 966, 608, 512, 81, 3, 670, 607, 560, 963, 191, 735, 320, 255, 408, 262, 449, 419, 361, 696, 57, 738, 76, 902, 693, 943, 170, 862] [4, 842, 808, 779, 78, 612, 471, 232, 184, 766, 670, 181, 601, 974, 232, 400, 49, 523, 518, 135, 648, 355, 39, 47, 816, 575, 848, 374, 201, 99, 681, 24, 193, 682, 980, 606, 77, 831, 610, 30] [270, 955, 807, 775, 673, 101, 542, 277, 419, 942, 700, 922, 932, 670, 942, 188, 988, 675, 189, 483, 954, 300, 326, 212, 835, 616, 199, 27, 731, 44, 511, 773, 796, 251, 883, 323, 168, 927, 537, 122] [400, 630, 740, 999, 906, 448, 219, 36, 188, 794, 450, 225, 949, 826, 396, 804, 341, 247, 410, 483, 588, 919, 603, 115, 660, 291, 676, 450, 333, 511, 813, 132, 797, 214, 240, 482, 665, 811, 502, 10]]
